
%FILE DATA:	Soccer Computational Problem for MiniZinc Models	%
%AUTHOR:	Jack Wall	%
%CONTACT:  	116397063@umail.ucc.ie			%
%LAST UPDATE:	03/03/2020, 16:02:56						%
%DESCRIPTION: 	32 games played with 24 games left				%


n=8; %number of teams

%Games to play
games=[|1,6|3,2|4,8|8,5|5,1|7,4|7,8|6,2|2,5|6,8|8,1|5,3|2,8|6,3|7,6|3,7|3,4|1,5|8,3|1,8|2,1|8,7|7,2|5,6|];

%Initial points
iPoints=[14,2,16,11,10,10,15,9];

%POSITION CONSTRAINTS
% [|teamID, operator, position|...]
% operators index:
%  1 for =  operator
%  2 for >  operator
%  3 for >= operator
%  4 for <  operator
%  5 for <= operator
positionConstraints=[|3,3,1|7,5,2|];